c ren 1 -> 1
c ren 2 -> 2
c ren 3 -> 3
c ren 4 -> 4
c ren 5 -> 5
c ren 6 -> 6
c ren 7 -> 7
c ren 8 -> 8
c ren 9 -> 9
c ren 10 -> 10
c ren 11 -> 11
c ren 12 -> 12
c ren 13 -> 13
c ren 14 -> 14
c ren 15 -> 15
c ren 16 -> 16
c ren 17 -> 17
c ren 18 -> 18
c ren 19 -> 19
c ren 20 -> 20
c ren 21 -> 21
c ren 22 -> 22
c ren 23 -> 23
c ren 25 -> 24
c ren 27 -> 25
c ren 28 -> 26
c ren 32 -> 27
c ren 46 -> 28
c ren 47 -> 29
c ren 50 -> 30
c ren 53 -> 31
c ren 56 -> 32
c ren 60 -> 33
c ren 64 -> 34
c ren 67 -> 35
p cnf 35 87
a 1 2 3 4 5 6 7 8 9 10 11 12 13 14 15 16 17 18 19 0
d 20 11 12 0
d 21 16 17 0
d 22 2 5 0
d 23 18 19 0
e 24 25 26 27 28 29 30 31 32 33 34 35 0
2 5 -7 -24 0
-2 -5 7 24 0
2 -5 7 -24 0
-2 5 -7 24 0
-2 5 7 -24 0
-2 -5 -7 -24 0
2 5 7 24 0
2 -5 -7 24 0
-1 4 25 0
1 -4 25 0
-1 -4 -25 0
1 4 -25 0
-8 -25 26 0
8 25 26 0
-8 25 -26 0
8 -25 -26 0
-2 -5 -10 -11 -13 -22 -24 -25 -26 -27 -28 0
3 -6 -14 30 0
3 -6 9 -27 0
-3 6 -9 27 0
-3 6 9 -27 0
-3 -6 9 27 0
-3 6 -14 30 0
27 28 0
-2 -5 -10 -11 13 -22 -24 25 -26 -27 -28 0
3 6 -9 -27 0
-7 -10 11 -13 22 -24 -25 -26 -27 -28 0
2 15 21 33 0
2 10 -11 13 -22 -24 25 -26 -27 -28 0
2 7 10 -11 -13 -22 -24 -25 -26 -27 -28 0
2 7 10 11 -13 22 -24 -25 -26 -27 -28 0
-2 -5 -10 11 13 22 -24 25 -26 -27 -28 0
5 7 10 11 -13 22 -24 -25 -26 -27 -28 0
5 15 21 33 0
3 6 9 27 0
5 10 -11 13 -22 -24 25 -26 -27 -28 0
2 10 11 13 22 -24 25 -26 -27 -28 0
-7 -10 -11 -13 -22 -24 -25 -26 -27 -28 0
-12 -13 29 0
12 13 29 0
24 28 0
-3 -6 -9 -27 0
-3 -6 14 30 0
3 -6 -9 27 0
-10 14 15 -19 28 -29 -31 -32 -33 -34 -35 0
-16 -22 31 0
16 22 31 0
3 6 14 30 0
-13 -17 32 0
13 17 32 0
-2 -5 -10 11 -13 22 -24 -25 -26 -27 -28 0
5 7 10 -11 -13 -22 -24 -25 -26 -27 -28 0
-15 -21 33 0
-2 -5 -15 33 0
-14 -15 -18 34 0
15 18 34 0
14 18 34 0
10 14 -15 -19 28 -29 -30 -31 -32 -33 -34 -35 0
3 -35 0
6 -35 0
-3 -6 35 0
-7 8 19 20 28 -29 -30 -31 -32 -33 -34 35 0
-9 28 -35 0
-7 -8 19 -20 28 -29 -30 -31 -32 -33 -34 35 0
7 8 -19 -20 28 -29 -30 -31 -32 -33 -34 -35 0
-1 4 19 28 -29 -30 -31 -32 -33 -34 35 0
7 -8 19 20 28 -29 -30 -31 -32 -33 -34 35 0
7 8 19 -20 28 -29 -30 -31 -32 -33 -34 35 0
26 28 0
1 -4 19 28 -29 -30 -31 -32 -33 -34 35 0
9 10 14 -15 19 28 -29 -30 -31 -32 -33 -34 35 0
-9 10 14 15 19 28 -29 -30 -31 -32 -33 -34 35 0
-9 10 -14 -15 19 28 -29 -30 -31 -32 -33 -34 35 0
9 -10 -14 -15 19 28 -29 -30 -31 -32 -33 -34 35 0
5 10 11 13 22 -24 25 -26 -27 -28 0
1 -4 -19 28 -29 -30 -31 -32 -33 -34 -35 0
-9 -10 -14 15 19 28 -29 -30 -31 -32 -33 -34 35 0
9 -10 14 15 19 28 -29 -30 -31 -32 -33 -34 35 0
10 19 -23 28 -29 -30 -31 -32 -33 -34 35 0
9 19 -23 28 -29 -30 -31 -32 -33 -34 35 0
-9 -10 19 23 28 -29 -30 -31 -32 -33 -34 35 0
9 10 -14 15 19 28 -29 -30 -31 -32 -33 -34 35 0
-9 -10 14 -15 19 28 -29 -30 -31 -32 -33 -34 0
-7 8 -19 20 28 -29 -30 -31 -32 -33 -34 -35 0
-7 -8 -19 -20 28 -29 -30 -31 -32 -33 -34 -35 0
-1 4 -19 28 -29 -30 -31 -32 -33 -34 -35 0
7 -8 -19 20 28 -29 -30 -31 -32 -33 -34 -35 0
